p cnf 50 60
3 22 43 0
4 13 -42 0
2 16 3 0
30 36 49 0
5 -17 50 0
16 -23 1 0
-28 40 -32 0
-36 30 -25 0
2 -30 29 0
-48 -26 -25 0
19 -5 38 0
-3 47 -11 0
-24 44 -3 0
35 23 33 0
3 17 38 0
23 -18 -33 0
4 -2 -19 0
12 -27 -30 0
29 10 50 0
25 -44 -35 0
17 47 -31 0
-48 -28 47 0
43 24 -30 0
-28 -13 -38 0
17 -27 49 0
29 -10 43 0
29 -10 -11 0
13 34 10 0
-3 -49 -30 0
27 -1 2 0
-44 -23 -38 0
14 6 -28 0
-46 -23 -35 0
-44 41 -14 0
-29 -34 -47 0
31 -47 25 0
-5 -21 9 0
-18 -34 32 0
34 -10 -37 0
-3 -44 43 0
-18 31 9 0
-43 -2 21 0
-18 10 8 0
-43 13 -28 0
46 -35 50 0
34 -30 -39 0
43 -8 6 0
-50 18 -47 0
32 21 36 0
-36 48 -32 0
x 1 -2 -5 6 8 -11 12 -18 21 -23 26 -27 -28 31 -36 -37 -38 39 -41 -42 -50 0
x 1 -5 -6 8 9 -10 11 -13 -15 16 -21 -25 -26 -28 29 -30 31 33 -34 37 39 40 42 43 -47 -48 0
x 1 -2 -5 -7 -11 -12 -13 14 15 16 18 -20 21 23 25 -30 31 32 -35 -36 37 45 48 0
x 1 -3 6 10 -11 -12 -13 14 15 16 17 18 20 -23 24 -25 -26 29 -30 -31 34 -35 -36 37 39 43 -45 -46 47 -48 0
x -1 -2 3 4 -5 -7 8 9 10 11 -14 16 18 20 21 25 -27 29 -30 -32 -33 -35 36 39 -40 41 -42 -43 44 45 46 47 50 0
x 1 -6 -7 -11 12 -16 -18 19 23 25 26 -27 -29 -30 -32 36 38 -41 -43 45 -49 -50 0
x -1 -2 3 -6 -7 -13 14 15 -17 -20 -21 22 -31 -33 -34 -35 36 -38 40 41 -42 43 44 -46 0
x -1 4 5 6 8 -13 14 -15 -17 -20 -23 -25 26 27 33 34 -36 40 -41 42 44 50 0
x -5 -6 -7 -8 -11 12 -14 -16 17 -18 19 -20 22 23 26 28 29 31 33 -35 -36 38 -40 41 -45 -47 -49 0
x 1 -6 -8 9 10 11 -12 -16 -17 -20 21 -26 -27 28 29 35 -37 -42 43 44 45 -49 -50 0
